(set-logic QF_LRA)
(declare-fun fluent_robot_at_r0_p0@0 () Bool)
(declare-fun fluent_robot_at_r1_p0@0 () Bool)
(declare-fun fluent_robot_at_r0_p1@0 () Bool)
(declare-fun fluent_robot_free_r0@0 () Bool)
(declare-fun fluent_robot_free_r1@0 () Bool)
(declare-fun fluent_robot_at_r1_p1@0 () Bool)
(declare-fun dur_make_treatment@1 () Real)
(declare-fun fluent_pallet_at_plt0_p0@0 () Bool)
(declare-fun fluent_pallet_at_plt0_p1@0 () Bool)
(declare-fun t@1 () Real)
(declare-fun fluent_battery_level_r0@0 () Real)
(declare-fun fluent_battery_level_r1@0 () Real)
(declare-fun parameter_make_treatment_t@1 () Real)
(declare-fun parameter_make_treatment_pallet@1 () Real)
(declare-fun fluent_position_free_p0@0 () Bool)
(declare-fun fluent_position_free_p1@0 () Bool)
(declare-fun parameter_make_treatment_r@1 () Real)
(declare-fun fluent_robot_has_r0_plt0@0 () Bool)
(declare-fun fluent_robot_has_r1_plt0@0 () Bool)
(declare-fun parameter_make_treatment_pos@1 () Real)
(declare-fun fluent_ready_plt0_p0_t0@0 () Bool)
(declare-fun fluent_ready_plt0_p1_t0@0 () Bool)
(declare-fun fluent_ready_plt0_p0_t1@0 () Bool)
(declare-fun fluent_ready_plt0_p1_t1@0 () Bool)
(declare-fun fluent_ready_plt0_p0_t2@0 () Bool)
(declare-fun fluent_ready_plt0_p1_t2@0 () Bool)
(declare-fun fluent_treated_plt0_t0@0 () Bool)
(declare-fun fluent_treated_plt0_t1@0 () Bool)
(declare-fun fluent_treated_plt0_t2@0 () Bool)
(declare-fun act_move@1 () Bool)
(declare-fun parameter_move_topos@1 () Real)
(declare-fun parameter_move_frompos@1 () Real)
(declare-fun parameter_move_r@1 () Real)
(declare-fun fluent_robot_at_r0_p0@1 () Bool)
(declare-fun fluent_robot_at_r1_p0@1 () Bool)
(declare-fun fluent_robot_at_r0_p1@1 () Bool)
(declare-fun act_make_treatment@1 () Bool)
(declare-fun fluent_robot_at_r1_p1@1 () Bool)
(declare-fun fluent_battery_level_r0@1 () Real)
(declare-fun fluent_battery_level_r1@1 () Real)
(declare-fun act_load@1 () Bool)
(declare-fun parameter_load_t@1 () Real)
(declare-fun parameter_load_pos@1 () Real)
(declare-fun parameter_load_pallet@1 () Real)
(declare-fun parameter_load_r@1 () Real)
(declare-fun fluent_robot_free_r0@1 () Bool)
(declare-fun fluent_robot_free_r1@1 () Bool)
(declare-fun fluent_ready_plt0_p0_t0@1 () Bool)
(declare-fun fluent_ready_plt0_p1_t0@1 () Bool)
(declare-fun fluent_ready_plt0_p0_t1@1 () Bool)
(declare-fun fluent_ready_plt0_p1_t1@1 () Bool)
(declare-fun fluent_ready_plt0_p0_t2@1 () Bool)
(declare-fun fluent_ready_plt0_p1_t2@1 () Bool)
(declare-fun fluent_pallet_at_plt0_p0@1 () Bool)
(declare-fun fluent_pallet_at_plt0_p1@1 () Bool)
(declare-fun fluent_robot_has_r0_plt0@1 () Bool)
(declare-fun fluent_robot_has_r1_plt0@1 () Bool)
(declare-fun fluent_treated_plt0_t0@1 () Bool)
(declare-fun fluent_treated_plt0_t1@1 () Bool)
(declare-fun fluent_treated_plt0_t2@1 () Bool)
(declare-fun fluent_position_free_p0@1 () Bool)
(declare-fun fluent_position_free_p1@1 () Bool)
(declare-fun act_load_at_depot@1 () Bool)
(declare-fun parameter_load_at_depot_pos@1 () Real)
(declare-fun parameter_load_at_depot_r@1 () Real)
(declare-fun parameter_load_at_depot_pallet@1 () Real)
(declare-fun act_unload_at_depot@1 () Bool)
(declare-fun parameter_unload_at_depot_pos@1 () Real)
(declare-fun parameter_unload_at_depot_r@1 () Real)
(declare-fun parameter_unload_at_depot_pallet@1 () Real)
(assert (let ((.def_0 (= parameter_unload_at_depot_pallet@1 4.0))) (let ((.def_1 (= parameter_unload_at_depot_r@1 1.0))) (let ((.def_2 (= parameter_unload_at_depot_r@1 0.0))) (let ((.def_3 (or .def_2 .def_1))) (let ((.def_4 (<= fluent_battery_level_r1@1 100.0))) (let ((.def_5 (<= 0.0 fluent_battery_level_r1@1))) (let ((.def_6 (= parameter_unload_at_depot_pos@1 3.0))) (let ((.def_7 (= parameter_unload_at_depot_pos@1 2.0))) (let ((.def_8 (or .def_7 .def_6))) (let ((.def_9 (<= fluent_battery_level_r0@1 100.0))) (let ((.def_10 (<= 0.0 fluent_battery_level_r0@1))) (let ((.def_11 (= parameter_load_at_depot_pallet@1 4.0))) (let ((.def_12 (= parameter_load_at_depot_r@1 1.0))) (let ((.def_13 (= parameter_load_at_depot_r@1 0.0))) (let ((.def_14 (or .def_13 .def_12))) (let ((.def_15 (= parameter_load_at_depot_pos@1 3.0))) (let ((.def_16 (= parameter_load_at_depot_pos@1 2.0))) (let ((.def_17 (or .def_16 .def_15))) (let ((.def_18 (= parameter_move_r@1 1.0))) (let ((.def_19 (= parameter_move_r@1 0.0))) (let ((.def_20 (or .def_19 .def_18))) (let ((.def_21 (= parameter_move_frompos@1 3.0))) (let ((.def_22 (= parameter_move_frompos@1 2.0))) (let ((.def_23 (or .def_22 .def_21))) (let ((.def_24 (= parameter_move_topos@1 3.0))) (let ((.def_25 (= parameter_move_topos@1 2.0))) (let ((.def_26 (or .def_25 .def_24))) (let ((.def_27 (= parameter_make_treatment_pos@1 3.0))) (let ((.def_28 (= parameter_make_treatment_pos@1 2.0))) (let ((.def_29 (or .def_28 .def_27))) (let ((.def_30 (= parameter_make_treatment_r@1 1.0))) (let ((.def_31 (= parameter_make_treatment_r@1 0.0))) (let ((.def_32 (or .def_31 .def_30))) (let ((.def_33 (= parameter_make_treatment_pallet@1 4.0))) (let ((.def_34 (= parameter_make_treatment_t@1 7.0))) (let ((.def_35 (= parameter_make_treatment_t@1 6.0))) (let ((.def_36 (= parameter_make_treatment_t@1 5.0))) (let ((.def_37 (or .def_36 .def_35 .def_34))) (let ((.def_38 (= parameter_load_r@1 1.0))) (let ((.def_39 (= parameter_load_r@1 0.0))) (let ((.def_40 (or .def_39 .def_38))) (let ((.def_41 (= parameter_load_pallet@1 4.0))) (let ((.def_42 (= parameter_load_pos@1 3.0))) (let ((.def_43 (= parameter_load_pos@1 2.0))) (let ((.def_44 (or .def_43 .def_42))) (let ((.def_45 (= parameter_load_t@1 7.0))) (let ((.def_46 (= parameter_load_t@1 6.0))) (let ((.def_47 (= parameter_load_t@1 5.0))) (let ((.def_48 (or .def_47 .def_46 .def_45))) (let ((.def_49 (and act_move@1 true .def_18))) (let ((.def_50 (= fluent_battery_level_r1@0 fluent_battery_level_r1@1))) (let ((.def_51 (not .def_50))) (let ((.def_52 (=> .def_51 .def_49))) (let ((.def_53 (and act_move@1 true .def_19))) (let ((.def_54 (= fluent_battery_level_r0@0 fluent_battery_level_r0@1))) (let ((.def_55 (not .def_54))) (let ((.def_56 (=> .def_55 .def_53))) (let ((.def_57 (and act_make_treatment@1 true .def_33 .def_27))) (let ((.def_58 (and act_unload_at_depot@1 true .def_0 .def_6))) (let ((.def_59 (and .def_58 .def_57))) (let ((.def_60 (not .def_59))) (let ((.def_61 (and act_load_at_depot@1 true .def_11 .def_15))) (let ((.def_62 (and .def_61 .def_57))) (let ((.def_63 (not .def_62))) (let ((.def_64 (and .def_61 .def_58))) (let ((.def_65 (not .def_64))) (let ((.def_66 (and act_load@1 true .def_41 .def_42))) (let ((.def_67 (and .def_66 .def_57))) (let ((.def_68 (not .def_67))) (let ((.def_69 (and .def_66 .def_58))) (let ((.def_70 (not .def_69))) (let ((.def_71 (and .def_66 .def_61))) (let ((.def_72 (not .def_71))) (let ((.def_73 (or .def_66 .def_61 .def_58 .def_57))) (let ((.def_74 (= fluent_pallet_at_plt0_p1@0 fluent_pallet_at_plt0_p1@1))) (let ((.def_75 (not .def_74))) (let ((.def_76 (=> .def_75 .def_73))) (let ((.def_77 (and act_make_treatment@1 true .def_33 .def_28))) (let ((.def_78 (and act_unload_at_depot@1 true .def_0 .def_7))) (let ((.def_79 (and .def_78 .def_77))) (let ((.def_80 (not .def_79))) (let ((.def_81 (and act_load_at_depot@1 true .def_11 .def_16))) (let ((.def_82 (and .def_81 .def_77))) (let ((.def_83 (not .def_82))) (let ((.def_84 (and .def_81 .def_78))) (let ((.def_85 (not .def_84))) (let ((.def_86 (and act_load@1 true .def_41 .def_43))) (let ((.def_87 (and .def_86 .def_77))) (let ((.def_88 (not .def_87))) (let ((.def_89 (and .def_86 .def_78))) (let ((.def_90 (not .def_89))) (let ((.def_91 (and .def_86 .def_81))) (let ((.def_92 (not .def_91))) (let ((.def_93 (or .def_86 .def_81 .def_78 .def_77))) (let ((.def_94 (= fluent_pallet_at_plt0_p0@0 fluent_pallet_at_plt0_p0@1))) (let ((.def_95 (not .def_94))) (let ((.def_96 (=> .def_95 .def_93))) (let ((.def_97 (and act_load@1 true .def_41 .def_45))) (let ((.def_98 (= fluent_treated_plt0_t2@0 fluent_treated_plt0_t2@1))) (let ((.def_99 (not .def_98))) (let ((.def_100 (=> .def_99 .def_97))) (let ((.def_101 (and act_load@1 true .def_41 .def_46))) (let ((.def_102 (= fluent_treated_plt0_t1@0 fluent_treated_plt0_t1@1))) (let ((.def_103 (not .def_102))) (let ((.def_104 (=> .def_103 .def_101))) (let ((.def_105 (and act_load@1 true .def_41 .def_47))) (let ((.def_106 (= fluent_treated_plt0_t0@0 fluent_treated_plt0_t0@1))) (let ((.def_107 (not .def_106))) (let ((.def_108 (=> .def_107 .def_105))) (let ((.def_109 (and act_make_treatment@1 true .def_27))) (let ((.def_110 (and act_load@1 true .def_42))) (let ((.def_111 (and .def_110 .def_109))) (let ((.def_112 (not .def_111))) (let ((.def_113 (or .def_110 .def_109))) (let ((.def_114 (= fluent_position_free_p1@0 fluent_position_free_p1@1))) (let ((.def_115 (not .def_114))) (let ((.def_116 (=> .def_115 .def_113))) (let ((.def_117 (and act_make_treatment@1 true .def_28))) (let ((.def_118 (and act_load@1 true .def_43))) (let ((.def_119 (and .def_118 .def_117))) (let ((.def_120 (not .def_119))) (let ((.def_121 (or .def_118 .def_117))) (let ((.def_122 (= fluent_position_free_p0@0 fluent_position_free_p0@1))) (let ((.def_123 (not .def_122))) (let ((.def_124 (=> .def_123 .def_121))) (let ((.def_125 (+ t@1 10.0))) (let ((.def_126 (= t@1 .def_125))) (let ((.def_127 (and act_make_treatment@1 true .def_126 .def_33 .def_27 .def_34))) (let ((.def_128 (and act_load@1 true .def_41 .def_42 .def_45))) (let ((.def_129 (and .def_128 .def_127))) (let ((.def_130 (not .def_129))) (let ((.def_131 (or .def_128 .def_127))) (let ((.def_132 (= fluent_ready_plt0_p1_t2@0 fluent_ready_plt0_p1_t2@1))) (let ((.def_133 (not .def_132))) (let ((.def_134 (=> .def_133 .def_131))) (let ((.def_135 (and act_make_treatment@1 true .def_126 .def_33 .def_28 .def_34))) (let ((.def_136 (and act_load@1 true .def_41 .def_43 .def_45))) (let ((.def_137 (and .def_136 .def_135))) (let ((.def_138 (not .def_137))) (let ((.def_139 (or .def_136 .def_135))) (let ((.def_140 (= fluent_ready_plt0_p0_t2@0 fluent_ready_plt0_p0_t2@1))) (let ((.def_141 (not .def_140))) (let ((.def_142 (=> .def_141 .def_139))) (let ((.def_143 (and act_make_treatment@1 true .def_126 .def_33 .def_27 .def_35))) (let ((.def_144 (and act_load@1 true .def_41 .def_42 .def_46))) (let ((.def_145 (and .def_144 .def_143))) (let ((.def_146 (not .def_145))) (let ((.def_147 (or .def_144 .def_143))) (let ((.def_148 (= fluent_ready_plt0_p1_t1@0 fluent_ready_plt0_p1_t1@1))) (let ((.def_149 (not .def_148))) (let ((.def_150 (=> .def_149 .def_147))) (let ((.def_151 (and act_make_treatment@1 true .def_126 .def_33 .def_28 .def_35))) (let ((.def_152 (and act_load@1 true .def_41 .def_43 .def_46))) (let ((.def_153 (and .def_152 .def_151))) (let ((.def_154 (not .def_153))) (let ((.def_155 (or .def_152 .def_151))) (let ((.def_156 (= fluent_ready_plt0_p0_t1@0 fluent_ready_plt0_p0_t1@1))) (let ((.def_157 (not .def_156))) (let ((.def_158 (=> .def_157 .def_155))) (let ((.def_159 (and act_make_treatment@1 true .def_126 .def_33 .def_27 .def_36))) (let ((.def_160 (and act_load@1 true .def_41 .def_42 .def_47))) (let ((.def_161 (and .def_160 .def_159))) (let ((.def_162 (not .def_161))) (let ((.def_163 (or .def_160 .def_159))) (let ((.def_164 (= fluent_ready_plt0_p1_t0@0 fluent_ready_plt0_p1_t0@1))) (let ((.def_165 (not .def_164))) (let ((.def_166 (=> .def_165 .def_163))) (let ((.def_167 (and act_make_treatment@1 true .def_126 .def_33 .def_28 .def_36))) (let ((.def_168 (and act_load@1 true .def_41 .def_43 .def_47))) (let ((.def_169 (and .def_168 .def_167))) (let ((.def_170 (not .def_169))) (let ((.def_171 (or .def_168 .def_167))) (let ((.def_172 (= fluent_ready_plt0_p0_t0@0 fluent_ready_plt0_p0_t0@1))) (let ((.def_173 (not .def_172))) (let ((.def_174 (=> .def_173 .def_171))) (let ((.def_175 (and act_make_treatment@1 true .def_30 .def_33))) (let ((.def_176 (and act_unload_at_depot@1 true .def_1 .def_0))) (let ((.def_177 (and .def_176 .def_175))) (let ((.def_178 (not .def_177))) (let ((.def_179 (and act_load_at_depot@1 true .def_12 .def_11))) (let ((.def_180 (and .def_179 .def_175))) (let ((.def_181 (not .def_180))) (let ((.def_182 (and .def_179 .def_176))) (let ((.def_183 (not .def_182))) (let ((.def_184 (and act_load@1 true .def_38 .def_41))) (let ((.def_185 (and .def_184 .def_175))) (let ((.def_186 (not .def_185))) (let ((.def_187 (and .def_184 .def_176))) (let ((.def_188 (not .def_187))) (let ((.def_189 (and .def_184 .def_179))) (let ((.def_190 (not .def_189))) (let ((.def_191 (or .def_184 .def_179 .def_176 .def_175))) (let ((.def_192 (= fluent_robot_has_r1_plt0@0 fluent_robot_has_r1_plt0@1))) (let ((.def_193 (not .def_192))) (let ((.def_194 (=> .def_193 .def_191))) (let ((.def_195 (and act_make_treatment@1 true .def_31 .def_33))) (let ((.def_196 (and act_unload_at_depot@1 true .def_2 .def_0))) (let ((.def_197 (and .def_196 .def_195))) (let ((.def_198 (not .def_197))) (let ((.def_199 (and act_load_at_depot@1 true .def_13 .def_11))) (let ((.def_200 (and .def_199 .def_195))) (let ((.def_201 (not .def_200))) (let ((.def_202 (and .def_199 .def_196))) (let ((.def_203 (not .def_202))) (let ((.def_204 (and act_load@1 true .def_39 .def_41))) (let ((.def_205 (and .def_204 .def_195))) (let ((.def_206 (not .def_205))) (let ((.def_207 (and .def_204 .def_196))) (let ((.def_208 (not .def_207))) (let ((.def_209 (and .def_204 .def_199))) (let ((.def_210 (not .def_209))) (let ((.def_211 (or .def_204 .def_199 .def_196 .def_195))) (let ((.def_212 (= fluent_robot_has_r0_plt0@0 fluent_robot_has_r0_plt0@1))) (let ((.def_213 (not .def_212))) (let ((.def_214 (=> .def_213 .def_211))) (let ((.def_215 (and act_make_treatment@1 true .def_30))) (let ((.def_216 (and act_unload_at_depot@1 true .def_1))) (let ((.def_217 (and .def_216 .def_215))) (let ((.def_218 (not .def_217))) (let ((.def_219 (and act_load_at_depot@1 true .def_12))) (let ((.def_220 (and .def_219 .def_215))) (let ((.def_221 (not .def_220))) (let ((.def_222 (and .def_219 .def_216))) (let ((.def_223 (not .def_222))) (let ((.def_224 (and act_load@1 true .def_38))) (let ((.def_225 (and .def_224 .def_215))) (let ((.def_226 (not .def_225))) (let ((.def_227 (and .def_224 .def_216))) (let ((.def_228 (not .def_227))) (let ((.def_229 (and .def_224 .def_219))) (let ((.def_230 (not .def_229))) (let ((.def_231 (or .def_224 .def_219 .def_216 .def_215))) (let ((.def_232 (= fluent_robot_free_r1@0 fluent_robot_free_r1@1))) (let ((.def_233 (not .def_232))) (let ((.def_234 (=> .def_233 .def_231))) (let ((.def_235 (and act_make_treatment@1 true .def_31))) (let ((.def_236 (and act_unload_at_depot@1 true .def_2))) (let ((.def_237 (and .def_236 .def_235))) (let ((.def_238 (not .def_237))) (let ((.def_239 (and act_load_at_depot@1 true .def_13))) (let ((.def_240 (and .def_239 .def_235))) (let ((.def_241 (not .def_240))) (let ((.def_242 (and .def_239 .def_236))) (let ((.def_243 (not .def_242))) (let ((.def_244 (and act_load@1 true .def_39))) (let ((.def_245 (and .def_244 .def_235))) (let ((.def_246 (not .def_245))) (let ((.def_247 (and .def_244 .def_236))) (let ((.def_248 (not .def_247))) (let ((.def_249 (and .def_244 .def_239))) (let ((.def_250 (not .def_249))) (let ((.def_251 (or .def_244 .def_239 .def_236 .def_235))) (let ((.def_252 (= fluent_robot_free_r0@0 fluent_robot_free_r0@1))) (let ((.def_253 (not .def_252))) (let ((.def_254 (=> .def_253 .def_251))) (let ((.def_255 (and act_move@1 true .def_18 .def_21))) (let ((.def_256 (and act_move@1 true .def_18 .def_24))) (let ((.def_257 (and .def_256 .def_255))) (let ((.def_258 (not .def_257))) (let ((.def_259 (or .def_256 .def_255))) (let ((.def_260 (= fluent_robot_at_r1_p1@0 fluent_robot_at_r1_p1@1))) (let ((.def_261 (not .def_260))) (let ((.def_262 (=> .def_261 .def_259))) (let ((.def_263 (and act_move@1 true .def_19 .def_21))) (let ((.def_264 (and act_move@1 true .def_19 .def_24))) (let ((.def_265 (and .def_264 .def_263))) (let ((.def_266 (not .def_265))) (let ((.def_267 (or .def_264 .def_263))) (let ((.def_268 (= fluent_robot_at_r0_p1@0 fluent_robot_at_r0_p1@1))) (let ((.def_269 (not .def_268))) (let ((.def_270 (=> .def_269 .def_267))) (let ((.def_271 (and act_move@1 true .def_18 .def_22))) (let ((.def_272 (and act_move@1 true .def_18 .def_25))) (let ((.def_273 (and .def_272 .def_271))) (let ((.def_274 (not .def_273))) (let ((.def_275 (or .def_272 .def_271))) (let ((.def_276 (= fluent_robot_at_r1_p0@0 fluent_robot_at_r1_p0@1))) (let ((.def_277 (not .def_276))) (let ((.def_278 (=> .def_277 .def_275))) (let ((.def_279 (and act_move@1 true .def_19 .def_22))) (let ((.def_280 (and act_move@1 true .def_19 .def_25))) (let ((.def_281 (and .def_280 .def_279))) (let ((.def_282 (not .def_281))) (let ((.def_283 (or .def_280 .def_279))) (let ((.def_284 (= fluent_robot_at_r0_p0@0 fluent_robot_at_r0_p0@1))) (let ((.def_285 (not .def_284))) (let ((.def_286 (=> .def_285 .def_283))) (let ((.def_287 (and .def_286 .def_282 .def_278 .def_274 .def_270 .def_266 .def_262 .def_258 .def_254 .def_250 .def_248 .def_246 .def_243 .def_241 .def_238 .def_234 .def_230 .def_228 .def_226 .def_223 .def_221 .def_218 .def_214 .def_210 .def_208 .def_206 .def_203 .def_201 .def_198 .def_194 .def_190 .def_188 .def_186 .def_183 .def_181 .def_178 .def_174 .def_170 .def_166 .def_162 .def_158 .def_154 .def_150 .def_146 .def_142 .def_138 .def_134 .def_130 .def_124 .def_120 .def_116 .def_112 .def_108 .def_104 .def_100 .def_96 .def_92 .def_90 .def_88 .def_85 .def_83 .def_80 .def_76 .def_72 .def_70 .def_68 .def_65 .def_63 .def_60 .def_56 .def_52))) (let ((.def_288 (= t@1 t@1))) (let ((.def_289 (and act_load@1 act_unload_at_depot@1 .def_288))) (let ((.def_290 (not .def_289))) (let ((.def_291 (and act_move@1 act_unload_at_depot@1 .def_288))) (let ((.def_292 (not .def_291))) (let ((.def_293 (and act_load_at_depot@1 act_move@1 .def_288))) (let ((.def_294 (not .def_293))) (let ((.def_295 (and act_load_at_depot@1 act_unload_at_depot@1 .def_288))) (let ((.def_296 (not .def_295))) (let ((.def_297 (and act_make_treatment@1 act_unload_at_depot@1 .def_288))) (let ((.def_298 (not .def_297))) (let ((.def_299 (and act_load@1 act_make_treatment@1 .def_288))) (let ((.def_300 (not .def_299))) (let ((.def_301 (and act_move@1 act_load@1 .def_288))) (let ((.def_302 (not .def_301))) (let ((.def_303 (+ t@1 dur_make_treatment@1))) (let ((.def_304 (= .def_303 t@1))) (let ((.def_305 (and act_make_treatment@1 act_load@1 .def_304))) (let ((.def_306 (not .def_305))) (let ((.def_307 (and act_load@1 act_make_treatment@1 .def_126))) (let ((.def_308 (not .def_307))) (let ((.def_309 (and act_move@1 act_make_treatment@1 .def_288))) (let ((.def_310 (not .def_309))) (let ((.def_311 (and act_load_at_depot@1 act_make_treatment@1 .def_288))) (let ((.def_312 (not .def_311))) (let ((.def_313 (and act_load_at_depot@1 act_load@1 .def_288))) (let ((.def_314 (not .def_313))) (let ((.def_315 (and .def_314 .def_312 .def_310 .def_308 .def_306 .def_302 .def_300 .def_298 .def_296 .def_294 .def_292 .def_290))) (let ((.def_316 (<= 0.0 t@1))) (let ((.def_317 (and .def_33 .def_27 .def_36))) (let ((.def_318 (ite .def_317 fluent_ready_plt0_p1_t0@1 fluent_ready_plt0_p0_t0@1))) (let ((.def_319 (and .def_33 .def_28 .def_35))) (let ((.def_320 (ite .def_319 fluent_ready_plt0_p0_t1@1 .def_318))) (let ((.def_321 (and .def_33 .def_27 .def_35))) (let ((.def_322 (ite .def_321 fluent_ready_plt0_p1_t1@1 .def_320))) (let ((.def_323 (and .def_33 .def_28 .def_34))) (let ((.def_324 (ite .def_323 fluent_ready_plt0_p0_t2@1 .def_322))) (let ((.def_325 (and .def_33 .def_27 .def_34))) (let ((.def_326 (ite .def_325 fluent_ready_plt0_p1_t2@1 .def_324))) (let ((.def_327 (= .def_326 true))) (let ((.def_328 (=> true .def_327))) (let ((.def_329 (and .def_126 .def_328))) (let ((.def_330 (ite .def_30 fluent_robot_free_r1@1 fluent_robot_free_r0@1))) (let ((.def_331 (= .def_330 true))) (let ((.def_332 (=> true .def_331))) (let ((.def_333 (and .def_33 .def_27))) (let ((.def_334 (ite .def_333 fluent_pallet_at_plt0_p1@1 fluent_pallet_at_plt0_p0@1))) (let ((.def_335 (= .def_334 true))) (let ((.def_336 (=> true .def_335))) (let ((.def_337 (and .def_30 .def_33))) (let ((.def_338 (ite .def_337 fluent_robot_has_r1_plt0@1 fluent_robot_has_r0_plt0@1))) (let ((.def_339 (= .def_338 false))) (let ((.def_340 (=> true .def_339))) (let ((.def_341 (ite .def_27 fluent_position_free_p1@1 fluent_position_free_p0@1))) (let ((.def_342 (= .def_341 false))) (let ((.def_343 (=> true .def_342))) (let ((.def_344 (and .def_288 .def_343 .def_340 .def_336 .def_332))) (let ((.def_345 (ite .def_27 fluent_position_free_p1@0 fluent_position_free_p0@0))) (let ((.def_346 (and .def_33 .def_35))) (let ((.def_347 (ite .def_346 fluent_treated_plt0_t1@0 fluent_treated_plt0_t0@0))) (let ((.def_348 (and .def_33 .def_34))) (let ((.def_349 (ite .def_348 fluent_treated_plt0_t2@0 .def_347))) (let ((.def_350 (and .def_349 .def_345))) (let ((.def_351 (<= .def_303 t@1))) (let ((.def_352 (< (- 1.0) .def_303))) (let ((.def_353 (and .def_352 .def_351))) (let ((.def_354 (=> .def_353 .def_350))) (let ((.def_355 (not .def_349))) (let ((.def_356 (ite .def_337 fluent_robot_has_r1_plt0@0 fluent_robot_has_r0_plt0@0))) (let ((.def_357 (and .def_30 .def_28))) (let ((.def_358 (ite .def_357 fluent_robot_at_r1_p0@0 fluent_robot_at_r0_p0@0))) (let ((.def_359 (and .def_31 .def_27))) (let ((.def_360 (ite .def_359 fluent_robot_at_r0_p1@0 .def_358))) (let ((.def_361 (and .def_30 .def_27))) (let ((.def_362 (ite .def_361 fluent_robot_at_r1_p1@0 .def_360))) (let ((.def_363 (and .def_27 .def_36))) (let ((.def_364 (ite .def_363 false true))) (let ((.def_365 (and .def_28 .def_35))) (let ((.def_366 (ite .def_365 true .def_364))) (let ((.def_367 (and .def_27 .def_35))) (let ((.def_368 (ite .def_367 false .def_366))) (let ((.def_369 (and .def_28 .def_34))) (let ((.def_370 (ite .def_369 true .def_368))) (let ((.def_371 (and .def_27 .def_34))) (let ((.def_372 (ite .def_371 false .def_370))) (let ((.def_373 (and .def_372 .def_345 .def_362 .def_356 .def_355))) (let ((.def_374 (<= t@1 t@1))) (let ((.def_375 (< (- 1.0) t@1))) (let ((.def_376 (and .def_375 .def_374))) (let ((.def_377 (=> .def_376 .def_373))) (let ((.def_378 (<= dur_make_treatment@1 20.0))) (let ((.def_379 (<= 20.0 dur_make_treatment@1))) (let ((.def_380 (and .def_379 .def_378))) (let ((.def_381 (and .def_380 .def_351 .def_377 .def_354 .def_344 .def_329))) (let ((.def_382 (=> act_make_treatment@1 .def_381))) (let ((.def_383 (and .def_1 .def_0))) (let ((.def_384 (ite .def_383 fluent_robot_has_r1_plt0@1 fluent_robot_has_r0_plt0@1))) (let ((.def_385 (= .def_384 false))) (let ((.def_386 (=> true .def_385))) (let ((.def_387 (ite .def_1 fluent_robot_free_r1@1 fluent_robot_free_r0@1))) (let ((.def_388 (= .def_387 true))) (let ((.def_389 (=> true .def_388))) (let ((.def_390 (and .def_0 .def_6))) (let ((.def_391 (ite .def_390 fluent_pallet_at_plt0_p1@1 fluent_pallet_at_plt0_p0@1))) (let ((.def_392 (= .def_391 true))) (let ((.def_393 (=> true .def_392))) (let ((.def_394 (ite .def_383 fluent_robot_has_r1_plt0@0 fluent_robot_has_r0_plt0@0))) (let ((.def_395 (and .def_1 .def_7))) (let ((.def_396 (ite .def_395 fluent_robot_at_r1_p0@0 fluent_robot_at_r0_p0@0))) (let ((.def_397 (and .def_2 .def_6))) (let ((.def_398 (ite .def_397 fluent_robot_at_r0_p1@0 .def_396))) (let ((.def_399 (and .def_1 .def_6))) (let ((.def_400 (ite .def_399 fluent_robot_at_r1_p1@0 .def_398))) (let ((.def_401 (ite .def_6 true false))) (let ((.def_402 (and .def_401 .def_400 .def_394 .def_393 .def_389 .def_386))) (let ((.def_403 (=> act_unload_at_depot@1 .def_402))) (let ((.def_404 (and .def_11 .def_15))) (let ((.def_405 (ite .def_404 fluent_pallet_at_plt0_p1@1 fluent_pallet_at_plt0_p0@1))) (let ((.def_406 (= .def_405 false))) (let ((.def_407 (=> true .def_406))) (let ((.def_408 (and .def_12 .def_11))) (let ((.def_409 (ite .def_408 fluent_robot_has_r1_plt0@1 fluent_robot_has_r0_plt0@1))) (let ((.def_410 (= .def_409 true))) (let ((.def_411 (=> true .def_410))) (let ((.def_412 (ite .def_12 fluent_robot_free_r1@1 fluent_robot_free_r0@1))) (let ((.def_413 (= .def_412 false))) (let ((.def_414 (=> true .def_413))) (let ((.def_415 (ite .def_404 fluent_pallet_at_plt0_p1@0 fluent_pallet_at_plt0_p0@0))) (let ((.def_416 (ite .def_12 fluent_robot_free_r1@0 fluent_robot_free_r0@0))) (let ((.def_417 (and .def_12 .def_16))) (let ((.def_418 (ite .def_417 fluent_robot_at_r1_p0@0 fluent_robot_at_r0_p0@0))) (let ((.def_419 (and .def_13 .def_15))) (let ((.def_420 (ite .def_419 fluent_robot_at_r0_p1@0 .def_418))) (let ((.def_421 (and .def_12 .def_15))) (let ((.def_422 (ite .def_421 fluent_robot_at_r1_p1@0 .def_420))) (let ((.def_423 (ite .def_15 true false))) (let ((.def_424 (and .def_423 .def_422 .def_416 .def_415 .def_414 .def_411 .def_407))) (let ((.def_425 (=> act_load_at_depot@1 .def_424))) (let ((.def_426 (ite .def_42 fluent_position_free_p1@1 fluent_position_free_p0@1))) (let ((.def_427 (= .def_426 true))) (let ((.def_428 (=> true .def_427))) (let ((.def_429 (and .def_41 .def_46))) (let ((.def_430 (ite .def_429 fluent_treated_plt0_t1@1 fluent_treated_plt0_t0@1))) (let ((.def_431 (and .def_41 .def_45))) (let ((.def_432 (ite .def_431 fluent_treated_plt0_t2@1 .def_430))) (let ((.def_433 (= .def_432 true))) (let ((.def_434 (=> true .def_433))) (let ((.def_435 (and .def_38 .def_41))) (let ((.def_436 (ite .def_435 fluent_robot_has_r1_plt0@1 fluent_robot_has_r0_plt0@1))) (let ((.def_437 (= .def_436 true))) (let ((.def_438 (=> true .def_437))) (let ((.def_439 (and .def_41 .def_42))) (let ((.def_440 (ite .def_439 fluent_pallet_at_plt0_p1@1 fluent_pallet_at_plt0_p0@1))) (let ((.def_441 (= .def_440 false))) (let ((.def_442 (=> true .def_441))) (let ((.def_443 (and .def_41 .def_42 .def_47))) (let ((.def_444 (ite .def_443 fluent_ready_plt0_p1_t0@1 fluent_ready_plt0_p0_t0@1))) (let ((.def_445 (and .def_41 .def_43 .def_46))) (let ((.def_446 (ite .def_445 fluent_ready_plt0_p0_t1@1 .def_444))) (let ((.def_447 (and .def_41 .def_42 .def_46))) (let ((.def_448 (ite .def_447 fluent_ready_plt0_p1_t1@1 .def_446))) (let ((.def_449 (and .def_41 .def_43 .def_45))) (let ((.def_450 (ite .def_449 fluent_ready_plt0_p0_t2@1 .def_448))) (let ((.def_451 (and .def_41 .def_42 .def_45))) (let ((.def_452 (ite .def_451 fluent_ready_plt0_p1_t2@1 .def_450))) (let ((.def_453 (= .def_452 false))) (let ((.def_454 (=> true .def_453))) (let ((.def_455 (ite .def_38 fluent_robot_free_r1@1 fluent_robot_free_r0@1))) (let ((.def_456 (= .def_455 false))) (let ((.def_457 (=> true .def_456))) (let ((.def_458 (ite .def_439 fluent_pallet_at_plt0_p1@0 fluent_pallet_at_plt0_p0@0))) (let ((.def_459 (ite .def_38 fluent_robot_free_r1@0 fluent_robot_free_r0@0))) (let ((.def_460 (and .def_38 .def_43))) (let ((.def_461 (ite .def_460 fluent_robot_at_r1_p0@0 fluent_robot_at_r0_p0@0))) (let ((.def_462 (and .def_39 .def_42))) (let ((.def_463 (ite .def_462 fluent_robot_at_r0_p1@0 .def_461))) (let ((.def_464 (and .def_38 .def_42))) (let ((.def_465 (ite .def_464 fluent_robot_at_r1_p1@0 .def_463))) (let ((.def_466 (ite .def_443 fluent_ready_plt0_p1_t0@0 fluent_ready_plt0_p0_t0@0))) (let ((.def_467 (ite .def_445 fluent_ready_plt0_p0_t1@0 .def_466))) (let ((.def_468 (ite .def_447 fluent_ready_plt0_p1_t1@0 .def_467))) (let ((.def_469 (ite .def_449 fluent_ready_plt0_p0_t2@0 .def_468))) (let ((.def_470 (ite .def_451 fluent_ready_plt0_p1_t2@0 .def_469))) (let ((.def_471 (and .def_470 .def_465 .def_459 .def_458 .def_457 .def_454 .def_442 .def_438 .def_434 .def_428))) (let ((.def_472 (=> act_load@1 .def_471))) (let ((.def_473 (and .def_21 .def_25))) (let ((.def_474 (ite .def_473 1.0 0.0))) (let ((.def_475 (and .def_22 .def_24))) (let ((.def_476 (ite .def_475 1.0 .def_474))) (let ((.def_477 (and .def_21 .def_24))) (let ((.def_478 (ite .def_477 0.0 .def_476))) (let ((.def_479 (ite .def_18 fluent_battery_level_r1@0 fluent_battery_level_r0@0))) (let ((.def_480 (- .def_479 .def_478))) (let ((.def_481 (ite .def_18 fluent_battery_level_r1@1 fluent_battery_level_r0@1))) (let ((.def_482 (= .def_481 .def_480))) (let ((.def_483 (=> true .def_482))) (let ((.def_484 (and .def_18 .def_22))) (let ((.def_485 (ite .def_484 fluent_robot_at_r1_p0@1 fluent_robot_at_r0_p0@1))) (let ((.def_486 (and .def_19 .def_21))) (let ((.def_487 (ite .def_486 fluent_robot_at_r0_p1@1 .def_485))) (let ((.def_488 (and .def_18 .def_21))) (let ((.def_489 (ite .def_488 fluent_robot_at_r1_p1@1 .def_487))) (let ((.def_490 (= .def_489 false))) (let ((.def_491 (=> true .def_490))) (let ((.def_492 (and .def_18 .def_25))) (let ((.def_493 (ite .def_492 fluent_robot_at_r1_p0@1 fluent_robot_at_r0_p0@1))) (let ((.def_494 (and .def_19 .def_24))) (let ((.def_495 (ite .def_494 fluent_robot_at_r0_p1@1 .def_493))) (let ((.def_496 (and .def_18 .def_24))) (let ((.def_497 (ite .def_496 fluent_robot_at_r1_p1@1 .def_495))) (let ((.def_498 (= .def_497 true))) (let ((.def_499 (=> true .def_498))) (let ((.def_500 (<= .def_478 .def_479))) (let ((.def_501 (ite .def_484 fluent_robot_at_r1_p0@0 fluent_robot_at_r0_p0@0))) (let ((.def_502 (ite .def_486 fluent_robot_at_r0_p1@0 .def_501))) (let ((.def_503 (ite .def_488 fluent_robot_at_r1_p1@0 .def_502))) (let ((.def_504 (= parameter_move_frompos@1 parameter_move_topos@1))) (let ((.def_505 (not .def_504))) (let ((.def_506 (and .def_505 .def_503 .def_500 .def_499 .def_491 .def_483))) (let ((.def_507 (=> act_move@1 .def_506))) (let ((.def_508 (<= 0.0 fluent_battery_level_r0@0))) (let ((.def_509 (<= fluent_battery_level_r1@0 100.0))) (let ((.def_510 (<= 0.0 fluent_battery_level_r1@0))) (let ((.def_511 (<= fluent_battery_level_r0@0 100.0))) (let ((.def_512 (= false false))) (let ((.def_513 (= fluent_pallet_at_plt0_p0@0 false))) (let ((.def_514 (= fluent_treated_plt0_t2@0 false))) (let ((.def_515 (= fluent_treated_plt0_t1@0 false))) (let ((.def_516 (= fluent_treated_plt0_t0@0 false))) (let ((.def_517 (= fluent_ready_plt0_p1_t2@0 false))) (let ((.def_518 (= fluent_ready_plt0_p0_t2@0 false))) (let ((.def_519 (= fluent_ready_plt0_p1_t1@0 false))) (let ((.def_520 (= fluent_ready_plt0_p0_t1@0 false))) (let ((.def_521 (= fluent_ready_plt0_p1_t0@0 false))) (let ((.def_522 (= fluent_ready_plt0_p0_t0@0 false))) (let ((.def_523 (= fluent_robot_has_r1_plt0@0 false))) (let ((.def_524 (= fluent_robot_has_r0_plt0@0 false))) (let ((.def_525 (= fluent_robot_at_r1_p0@0 false))) (let ((.def_526 (= fluent_robot_at_r0_p0@0 false))) (let ((.def_527 (= true true))) (let ((.def_528 (= fluent_position_free_p1@0 true))) (let ((.def_529 (= fluent_position_free_p0@0 true))) (let ((.def_530 (= 0.0 0.0))) (let ((.def_531 (= 1.0 1.0))) (let ((.def_532 (= fluent_battery_level_r1@0 4.0))) (let ((.def_533 (= fluent_battery_level_r0@0 4.0))) (let ((.def_534 (= fluent_pallet_at_plt0_p1@0 true))) (let ((.def_535 (= fluent_robot_free_r1@0 true))) (let ((.def_536 (= fluent_robot_at_r1_p1@0 true))) (let ((.def_537 (= fluent_robot_free_r0@0 true))) (let ((.def_538 (= fluent_robot_at_r0_p1@0 true))) (let ((.def_539 (and .def_538 .def_537 .def_536 .def_535 .def_534 .def_533 .def_532 .def_530 .def_531 .def_531 .def_530 .def_527 .def_529 .def_528 .def_527 .def_527 .def_527 .def_526 .def_525 .def_524 .def_523 .def_522 .def_521 .def_520 .def_519 .def_518 .def_517 .def_516 .def_515 .def_514 .def_513 .def_512 .def_512 .def_512 .def_512 .def_511 .def_510 .def_509 .def_508))) (let ((.def_540 (and .def_539 .def_507 .def_472 .def_425 .def_403 .def_382 .def_316 .def_315 true .def_287 .def_48 .def_44 .def_41 .def_40 .def_37 .def_33 .def_32 .def_29 .def_26 .def_23 .def_20 .def_17 .def_14 .def_11 .def_10 .def_9 .def_8 .def_5 .def_4 .def_3 .def_0 true))) .def_540))))))))))))))))))))))))))))))))))))))))))))))))))))))))))))))))))))))))))))))))))))))))))))))))))))))))))))))))))))))))))))))))))))))))))))))))))))))))))))))))))))))))))))))))))))))))))))))))))))))))))))))))))))))))))))))))))))))))))))))))))))))))))))))))))))))))))))))))))))))))))))))))))))))))))))))))))))))))))))))))))))))))))))))))))))))))))))))))))))))))))))))))))))))))))))))))))))))))))))))))))))))))))))))))))))))))))))))))))))))))))))))))))))))))))))))))))))))))))))))))))))))))))))))))))))))))))))))))))))))))))))))))))))))))))))))
(check-sat)

--------------------------------------------------------------------------------
